15
985 538 738  388
727 431 594  309
508 937 967  344
424 906 847  887
785 900 550  546
834 404 922  601
941 672 487  335
857 915 732  406
988 504 751  711
836 996 611  191
734 522 762  981
531 535 476  122
653 458 401  352
610 902 690  317
618 642 644  224
10
605 350 761  191 287
90 514 83  277 22
535 52 105  7 278
766 261 33  220 110
89 78 734  214 184
725 669 654  20 125
799 192 360  128 121
233 506 657  14 180
242 127 202  158 113
602 763 418  240 57
